p cnf 86 280
1 2 10 0
-10 4 5 0
-1 -2 0
-1 -4 0
-2 -4 0
-1 -5 0
-2 -5 0
-4 -5 0
1 2 11 0
-11 3 12 0
-12 4 5 0
1 2 13 0
-13 3 14 0
-14 4 6 0
1 2 15 0
-15 3 16 0
-16 5 6 0
1 2 17 0
-17 4 18 0
-18 5 6 0
1 3 19 0
-19 4 20 0
-20 5 6 0
2 3 21 0
-21 4 22 0
-22 5 6 0
-1 -2 -3 0
-1 -2 -4 0
-1 -3 -4 0
-2 -3 -4 0
-1 -2 -5 0
-1 -3 -5 0
-2 -3 -5 0
-1 -4 -5 0
-2 -4 -5 0
-3 -4 -5 0
-1 -2 -6 0
-1 -3 -6 0
-2 -3 -6 0
-1 -4 -6 0
-2 -4 -6 0
-3 -4 -6 0
-1 -5 -6 0
-2 -5 -6 0
-3 -5 -6 0
-4 -5 -6 0
2 3 5 0
2 3 6 0
2 5 6 0
3 5 6 0
-2 -3 -5 0
-2 -3 -6 0
-2 -5 -6 0
-3 -5 -6 0
1 2 23 0
-23 4 24 0
-24 5 25 0
-25 7 8 0
-1 -2 0
-1 -4 0
-2 -4 0
-1 -5 0
-2 -5 0
-4 -5 0
-1 -7 0
-2 -7 0
-4 -7 0
-5 -7 0
-1 -8 0
-2 -8 0
-4 -8 0
-5 -8 0
-7 -8 0
1 2 26 0
-26 3 27 0
-27 4 28 0
-28 5 29 0
-29 6 30 0
-30 7 8 0
1 2 31 0
-31 3 32 0
-32 4 33 0
-33 5 34 0
-34 6 35 0
-35 7 9 0
1 2 36 0
-36 3 37 0
-37 4 38 0
-38 5 39 0
-39 6 40 0
-40 8 9 0
1 2 41 0
-41 3 42 0
-42 4 43 0
-43 5 44 0
-44 7 45 0
-45 8 9 0
1 2 46 0
-46 3 47 0
-47 4 48 0
-48 6 49 0
-49 7 50 0
-50 8 9 0
1 2 51 0
-51 3 52 0
-52 5 53 0
-53 6 54 0
-54 7 55 0
-55 8 9 0
1 2 56 0
-56 4 57 0
-57 5 58 0
-58 6 59 0
-59 7 60 0
-60 8 9 0
1 3 61 0
-61 4 62 0
-62 5 63 0
-63 6 64 0
-64 7 65 0
-65 8 9 0
2 3 66 0
-66 4 67 0
-67 5 68 0
-68 6 69 0
-69 7 70 0
-70 8 9 0
-1 -2 -3 0
-1 -2 -4 0
-1 -3 -4 0
-2 -3 -4 0
-1 -2 -5 0
-1 -3 -5 0
-2 -3 -5 0
-1 -4 -5 0
-2 -4 -5 0
-3 -4 -5 0
-1 -2 -6 0
-1 -3 -6 0
-2 -3 -6 0
-1 -4 -6 0
-2 -4 -6 0
-3 -4 -6 0
-1 -5 -6 0
-2 -5 -6 0
-3 -5 -6 0
-4 -5 -6 0
-1 -2 -7 0
-1 -3 -7 0
-2 -3 -7 0
-1 -4 -7 0
-2 -4 -7 0
-3 -4 -7 0
-1 -5 -7 0
-2 -5 -7 0
-3 -5 -7 0
-4 -5 -7 0
-1 -6 -7 0
-2 -6 -7 0
-3 -6 -7 0
-4 -6 -7 0
-5 -6 -7 0
-1 -2 -8 0
-1 -3 -8 0
-2 -3 -8 0
-1 -4 -8 0
-2 -4 -8 0
-3 -4 -8 0
-1 -5 -8 0
-2 -5 -8 0
-3 -5 -8 0
-4 -5 -8 0
-1 -6 -8 0
-2 -6 -8 0
-3 -6 -8 0
-4 -6 -8 0
-5 -6 -8 0
-1 -7 -8 0
-2 -7 -8 0
-3 -7 -8 0
-4 -7 -8 0
-5 -7 -8 0
-6 -7 -8 0
-1 -2 -9 0
-1 -3 -9 0
-2 -3 -9 0
-1 -4 -9 0
-2 -4 -9 0
-3 -4 -9 0
-1 -5 -9 0
-2 -5 -9 0
-3 -5 -9 0
-4 -5 -9 0
-1 -6 -9 0
-2 -6 -9 0
-3 -6 -9 0
-4 -6 -9 0
-5 -6 -9 0
-1 -7 -9 0
-2 -7 -9 0
-3 -7 -9 0
-4 -7 -9 0
-5 -7 -9 0
-6 -7 -9 0
-1 -8 -9 0
-2 -8 -9 0
-3 -8 -9 0
-4 -8 -9 0
-5 -8 -9 0
-6 -8 -9 0
-7 -8 -9 0
2 3 71 0
-71 5 72 0
-72 6 8 0
2 3 73 0
-73 5 74 0
-74 6 9 0
2 3 75 0
-75 5 76 0
-76 8 9 0
2 3 77 0
-77 6 78 0
-78 8 9 0
2 5 79 0
-79 6 80 0
-80 8 9 0
3 5 81 0
-81 6 82 0
-82 8 9 0
-2 -3 -5 0
-2 -3 -6 0
-2 -5 -6 0
-3 -5 -6 0
-2 -3 -8 0
-2 -5 -8 0
-3 -5 -8 0
-2 -6 -8 0
-3 -6 -8 0
-5 -6 -8 0
-2 -3 -9 0
-2 -5 -9 0
-3 -5 -9 0
-2 -6 -9 0
-3 -6 -9 0
-5 -6 -9 0
-2 -8 -9 0
-3 -8 -9 0
-5 -8 -9 0
-6 -8 -9 0
-4 0
-5 0
-7 0
-8 0
4 5 83 0
-83 6 84 0
-84 7 85 0
-85 8 9 0
-4 -5 0
-4 -6 0
-5 -6 0
-4 -7 0
-5 -7 0
-6 -7 0
-4 -8 0
-5 -8 0
-6 -8 0
-7 -8 0
-4 -9 0
-5 -9 0
-6 -9 0
-7 -9 0
-8 -9 0
5 6 86 0
-86 8 9 0
-5 -6 0
-5 -8 0
-6 -8 0
-5 -9 0
-6 -9 0
-8 -9 0
